
Gurobi 9.5.1 (mac64[x86], gurobi_cl) logging started Fri Jul 22 09:45:12 2022

Set parameter Username
Set parameter LogFile to value "gurobi.log"
Academic license - for non-commercial use only - expires 2023-07-16
Using license file /Users/enrico/gurobi.lic

Gurobi Optimizer version 9.5.1 build v9.5.1rc2 (mac64[x86])
Copyright (c) 2022, Gurobi Optimization, LLC

Read LP format model from file /var/folders/l7/8_170rt114dddj0fq7pmwk0m0000gn/T/3016a3693817415e8ab200a1f0efd3d9-pulp.lp
Reading time = 0.16 seconds
Minimization_of_the_total_cost_of_the_hybrid_solution: 1208 rows, 23046 columns, 184276 nonzeros
Thread count: 2 physical cores, 4 logical processors, using up to 4 threads
Optimize a model with 1208 rows, 23046 columns and 184276 nonzeros
Model fingerprint: 0x34f357fe
Variable types: 0 continuous, 23046 integer (23023 binary)
Coefficient statistics:
  Matrix range     [4e-02, 4e+06]
  Objective range  [4e+02, 1e+04]
  Bounds range     [1e+00, 1e+00]
  RHS range        [1e+00, 3e+05]
Found heuristic solution: objective 1261796.6667
Presolve removed 69 rows and 0 columns
Presolve time: 0.52s
Presolved: 1139 rows, 23046 columns, 115207 nonzeros
Variable types: 0 continuous, 23046 integer (23023 binary)

Root relaxation: objective 2.029311e+05, 1243 iterations, 0.04 seconds (0.01 work units)

    Nodes    |    Current Node    |     Objective Bounds      |     Work
 Expl Unexpl |  Obj  Depth IntInf | Incumbent    BestBd   Gap | It/Node Time

     0     0 202931.099    0    1 1261796.67 202931.099  83.9%     -    0s
H    0     0                    204032.72500 202931.099  0.54%     -    0s
     0     0 202931.136    0    5 204032.725 202931.136  0.54%     -    1s
     0     0 202931.136    0    1 204032.725 202931.136  0.54%     -    1s
     0     0 202931.136    0  965 204032.725 202931.136  0.54%     -    1s
     0     0 202931.564    0  978 204032.725 202931.564  0.54%     -    2s
     0     0 202932.062    0    3 204032.725 202932.062  0.54%     -    2s
     0     0 202932.062    0    5 204032.725 202932.062  0.54%     -    2s
     0     0 202932.062    0    5 204032.725 202932.062  0.54%     -    2s
     0     0 202932.062    0    5 204032.725 202932.062  0.54%     -    2s
H    0     0                    203034.00833 202932.062  0.05%     -    2s
     0     0 202932.062    0    4 203034.008 202932.062  0.05%     -    3s
     0     0 202932.062    0    7 203034.008 202932.062  0.05%     -    3s
     0     0 202932.062    0    5 203034.008 202932.062  0.05%     -    3s
     0     0 202932.062    0    3 203034.008 202932.062  0.05%     -    3s
     0     0 202932.062    0    5 203034.008 202932.062  0.05%     -    3s
     0     0 202932.062    0    7 203034.008 202932.062  0.05%     -    3s
     0     0 202932.062    0    7 203034.008 202932.062  0.05%     -    3s
     0     0 202932.062    0    5 203034.008 202932.062  0.05%     -    3s
     0     0 202932.062    0    5 203034.008 202932.062  0.05%     -    3s
     0     0 202932.062    0    5 203034.008 202932.062  0.05%     -    3s
     0     0 202932.062    0    5 203034.008 202932.062  0.05%     -    3s
     0     2 202932.062    0    5 203034.008 202932.062  0.05%     -    3s
    15    13 202933.136    6  713 203034.008 202932.206  0.05%  59.2    5s
   510   146 202947.894   65  536 203034.008 202932.494  0.05%  62.1   10s
  2754   359 202985.801   71    5 203034.008 202933.489  0.05%  39.7   15s
  3690   421 202933.666   13    5 203034.008 202933.666  0.05%  39.9   20s
  4163   304 202983.186   89    5 203034.008 202934.468  0.05%  39.9   26s
  5659   161 202956.589   89    3 203034.008 202936.393  0.05%  37.8   30s
  9638   265 202983.876   74    5 203034.008 202938.302  0.05%  34.7   35s
 12308   362 203003.126  101    5 203034.008 202939.585  0.05%  33.4   40s
 14211   374     cutoff   76      203034.008 202941.477  0.05%  34.7   46s
 15672   376 202974.893   67    5 203034.008 202946.611  0.04%  37.4   50s
 17474   494 202950.509   58    5 203034.008 202950.509  0.04%  39.7   55s
 19513   534 202961.418   96    5 203034.008 202957.407  0.04%  41.9   60s
 21353   604 202989.651   97    5 203034.008 202962.701  0.04%  42.9   69s
 21359   608 203018.526  129    4 203034.008 202962.701  0.04%  42.9   70s
 23373    80 202965.268   66    5 203034.008 202962.701  0.04%  41.8   75s
 26303   185 202987.084  103    5 203034.008 202962.701  0.04%  41.1   80s
 28917   236 202978.743   87    5 203034.008 202962.701  0.04%  41.1   85s
 30833   216 202980.026  100    5 203034.008 202962.701  0.04%  42.6   90s
 32195   268 202969.118   78    5 203034.008 202962.701  0.04%  43.4   95s
 35867   758 202964.626  179    5 203034.008 202962.701  0.04%  42.6  100s
 39475  1152 202962.701  171  646 203034.008 202962.701  0.04%  41.3  105s

Cutting planes:
  Gomory: 2
  Cover: 1
  MIR: 1
  Flow cover: 1
  Inf proof: 1

Explored 40918 nodes (1680658 simplex iterations) in 106.97 seconds (128.99 work units)
Thread count was 4 (of 4 available processors)

Solution count 3: 203034 204033 1.2618e+06 

Solve interrupted
Best objective 2.030340083335e+05, best bound 2.029627011175e+05, gap 0.0351%

Wrote result file '/var/folders/l7/8_170rt114dddj0fq7pmwk0m0000gn/T/3016a3693817415e8ab200a1f0efd3d9-pulp.sol'

